p cnf 10 27
2 -6 4 0
10 -10 0
8 10 7 0
-8 0
-8 -6 0
-3 -9 0
-8 1 -7 -2 0
5 0
3 -9 0
3 0
-8 -5 0
2 5 -1 0
-7 3 -2 0
10 -10 0
6 7 0
-5 0
-7 10 3 0
9 7 -2 -1 0
-6 10 -3 -1 0
-8 -7 -3 0
9 3 1 0
9 7 0
3 -7 -5 8 0
8 -5 -3 -2 0
-7 -6 3 7 0
-7 -6 -2 -1 0
-4 4 -1 0
